Route #1: 29 4 11 10 15 3 9 22
Route #2: 21
Route #3: 1
Route #4: 24 6 8
Route #5: 2 12 31 19
Route #6: 23
Route #7: 25
Route #8: 5
Route #9: 28 30 7
Route #10: 20
Route #11: 14 18 26 13 17 16 27

Cost: 2115.6759983112124
